Optimal - objective value 8.00000000
      0 x_0_0                       1                       0
      1 x_1_0                       1                      -1
      5 x_2_2                       1                       0
      9 x_3_3                       1                       1
     13 x_4_3                       1                       0
     20 x_5_5                       1                       1
     27 x_6_6                       1                       0
     35 x_7_7                       1                       0
     38 x_8_2                       1                       1
     52 x_9_7                       1                       0
     55 x_10_0                      1                       0
     77 x_11_11                     1                       1
     78 x_12_0                      1                       1
     97 x_13_6                      1                       0
    107 x_14_2                      1                       0
    135 x_15_15                     1                       1
    139 x_16_3                      1                       0
    156 x_17_3                      1                       0
    176 x_18_5                      1                       0
    192 x_19_2                      1                       0
    216 x_20_6                      1                       1
    242 x_21_11                     1                       0
    259 x_22_6                      1                       0
    283 x_23_7                      1                       0
    315 x_24_15                     1                       0
    327 x_25_2                      1                       0
    366 x_26_15                     1                       0
    393 x_27_15                     1                       0
    417 x_28_11                     1                       0
    435 x_29_0                      1                       0
    476 x_30_11                     1                       0
    499 x_31_3                      1                       0
    530 x_32_2                      1                       0
    568 x_33_7                      1                       0
    610 x_34_15                     1                       0
    635 x_35_5                      1                       0
    677 x_36_11                     1                       0
    710 x_37_7                      1                       1
    747 x_38_6                      1                       0
    787 x_39_7                      1                       0
    823 x_40_3                      1                       0
    872 x_41_11                     1                       0
    908 x_42_5                      1                       0
    951 x_43_5                      1                       0
    997 x_44_7                      1                       0
   1046 x_45_11                     1                       0
   1092 x_46_11                     1                       0
   1134 x_47_6                      1                       0
   1191 x_48_15                     1                       0
   1230 x_49_5                      1                       0
   1280 x_50_5                      1                       0
   1341 x_51_15                     1                       0
   1393 x_52_15                     1                       0
   1436 x_53_5                      1                       0
